c A SAT instance generated from a 3-CNF formula that had 39 clauses and 13 variables
p cnf 13 39
-7 9 13 0
2 7 3 0
-12 9 -7 0
-9 -10 3 0
-4 -11 -9 0
13 6 -8 0
-9 -8 5 0
-7 8 -12 0
6 10 -1 0
-10 1 5 0
-11 1 -8 0
2 -10 6 0
-12 -7 1 0
4 -5 11 0
3 -10 12 0
-12 -9 8 0
9 5 12 0
-3 -12 4 0
-3 -10 -5 0
4 3 -11 0
-7 8 3 0
4 -10 -8 0
-5 8 -10 0
9 -3 8 0
4 -9 1 0
12 -8 9 0
-11 5 -8 0
3 5 1 0
10 7 -1 0
-10 9 -3 0
-5 -11 9 0
-2 8 -6 0
10 13 7 0
3 13 -7 0
1 -6 3 0
-1 6 -10 0
9 5 -10 0
4 1 -11 0
-4 7 8 0
